Start: Tue Apr 29 04:18:14 PM EDT 2025
cwd: /hpc/home/avb25/Graphene_Strength_Surface
LAMMPS (29 Aug 2024)
OMP_NUM_THREADS environment is not set. Defaulting to 1 thread. (src/comm.cpp:98)
  using 1 OpenMP thread(s) per MPI task
Reading data file ...
  orthogonal box = (-1.7285872 -0.03922291 -41.42) to (123.84859 72.404587 41.42)
  4 by 2 by 2 MPI processor grid
  reading atoms ...
  3600 atoms
  reading velocities ...
  3600 velocities
  read_data CPU = 0.109 seconds
Reading airebo potential file CH.airebo with DATE: 2011-10-25
3600 atoms in group all
Changing box ...
  orthogonal box = (-21.728587 -0.03922291 -41.42) to (143.84859 72.404587 41.42)
  orthogonal box = (-21.728587 -20.039223 -41.42) to (143.84859 92.404587 41.42)
  orthogonal box = (-21.728587 -20.039223 -61.42) to (143.84859 92.404587 61.42)
Displacing atoms ...
2323 atoms in group kept_atoms
1277 atoms in group trash_atoms
Deleted 1277 atoms, new total = 2323
Changing box ...
  orthogonal box = (10.56 -20.039223 -61.42) to (111.56 92.404587 61.42)
  orthogonal box = (10.56 5.6826822 -61.42) to (111.56 66.682682 61.42)
  orthogonal box = (10.56 5.6826822 -61.42) to (111.56 66.682682 61.42)

CITE-CITE-CITE-CITE-CITE-CITE-CITE-CITE-CITE-CITE-CITE-CITE-CITE

Your simulation uses code contributions which should be cited:
- Type Label Framework: https://doi.org/10.1021/acs.jpcb.3c08419
The log file lists these citations in BibTeX format.

CITE-CITE-CITE-CITE-CITE-CITE-CITE-CITE-CITE-CITE-CITE-CITE-CITE

Neighbor list info ...
  update: every = 1 steps, delay = 0 steps, check = yes
  max neighbors/atom: 2000, page size: 100000
  master list distance cutoff = 12.2
  ghost atom cutoff = 12.2
  binsize = 6.1, bins = 17 10 21
  1 neighbor lists, perpetual/occasional/extra = 1 0 0
  (1) pair airebo, perpetual
      attributes: full, newton on, ghost
      pair build: full/bin/ghost
      stencil: full/ghost/bin/3d
      bin: standard
Setting up Verlet run ...
  Unit style    : metal
  Current step  : 0
  Time step     : 0.001
Per MPI rank memory allocation (min/avg/max) = 3.943 | 3.966 | 3.986 Mbytes
   Step          Temp          Press            Lx             Ly             Lz        v_stress_xx    v_stress_yy    v_stress_zz    v_stress_xy    v_stress_xz    v_stress_yz  
         0   271.98471      48.567427      101            61             122.84        -0.29003399    -0.05351364    -0.0042526141   0.22959632    -0.013041809   -0.00081488935
       100   290.57646      21.123866      101.0101       61             122.84         0.12981309    -0.26762125    -0.013478839   -0.20514782     0.008656946    0.0053747249 
       200   289.8106      -177.36116      101.0202       61             122.84         1.0825126      0.17930934     0.008547832   -0.38151476    -0.027313352    0.039290135  
       300   291.10245     -262.67813      101.0303       61             122.84         1.7196211      0.14484859     0.017180812   -0.04026076    -0.0031124081   0.050921631  
       400   283.38827     -265.46815      101.0404       61             122.84         2.0170584     -0.13920287     0.02397092     0.31261322    -0.028895149   -0.012875433  
       500   275.67444     -338.89229      101.0505       61             122.84         2.191722       0.20561402     0.030747235    0.74227642     0.039309114    0.031109348  
       600   267.80481     -264.33443      101.0606       61             122.84         1.934649      -0.017272877   -0.023293005    0.57023324    -0.023888804    0.028406237  
       700   275.24133     -304.81339      101.0707       61             122.84         1.7738537      0.36789718     0.042601689    0.94484709     0.024030903    0.033774748  
       800   281.80862     -191.1692       101.0808       61             122.84         1.5183808     -0.1486639      0.00037598944  0.57781268     0.029796059    0.095800734  
       900   270.99186     -239.95439      101.0909       61             122.84         1.3499205      0.37749138    -0.0075080528   0.53210778    -0.019551346   -0.007838719  
      1000   266.68533     -207.23863      101.101        61             122.84         1.4765503      0.027409447   -0.018401896    0.33436078    -0.059037026   -0.033706777  
      1100   275.78158     -277.52583      101.1111       61             122.84         1.6260775      0.35264288     0.010879095    0.32387233     0.031626306   -0.018639971  
      1200   271.51734     -280.68946      101.1212       61             122.84         1.9757056      0.028252573    0.0085225946   0.458222      -0.03810404     0.0274018    
      1300   269.94189     -342.76247      101.1313       61             122.84         2.2004993      0.22768725     0.029589292    0.50052568     0.0104212      0.012581946  
      1400   269.51375     -398.41684      101.1414       61             122.84         2.7000449      0.18523       -0.028144459    0.61809523    -0.097286446   -0.087582131  
      1500   270.6921      -400.93018      101.1515       61             122.84         2.5014577      0.34760085     0.026382657    0.83318355     0.010484008    0.014408924  
      1600   278.97932     -347.19869      101.1616       61             122.84         2.4201463      0.08315681    -0.012971466    0.95793306     0.071998069   -0.04232206   
      1700   274.22811     -371.29469      101.1717       61             122.84         2.3304249      0.32336846     0.0096361207   1.0727936      0.025114204    0.039072998  
      1800   269.92933     -308.22069      101.1818       61             122.84         1.9254863      0.29003026    -0.0043187112   0.62361401    -0.090215165    0.10467217   
      1900   272.20222     -291.78934      101.1919       61             122.84         1.7279151      0.37450999    -0.0088979464   0.6112389     -0.036640835    0.0079985441 
      2000   273.32609     -371.02234      101.202        61             122.84         2.1296404      0.4920917      0.040540828    0.55439831     0.074781414   -0.010509634  
      2100   277.92876     -356.60119      101.2121       61             122.84         1.9506548      0.6480915     -0.039697099    0.51649655     0.013441555   -0.011808877  
      2200   274.38441     -320.05831      101.2222       61             122.84         2.2121519      0.10195452    -0.017067817    0.67805379    -0.036395888    0.06211269   
      2300   268.52506     -399.63211      101.2323       61             122.84         2.4760938      0.40471595    -0.012388719    0.67842518    -0.0027953604  -0.087085712  
      2400   268.41274     -445.11699      101.2424       61             122.84         2.8921933      0.28820145     0.014819794    0.90927701    -0.014286699    0.032984465  
      2500   272.5998      -434.55814      101.2525       61             122.84         2.6251513      0.49533227    -0.00075315567  0.58856931    -0.021487469    0.014894381  
      2600   273.15312     -460.29981      101.2626       61             122.84         2.5869287      0.67992337     0.038009545    0.87933473    -0.022298549   -0.053270506  
      2700   279.15362     -337.12925      101.2727       61             122.84         2.2679127      0.16310846    -0.01025834     0.75399427     0.081695707    0.059148806  
      2800   275.11374     -426.18504      101.2828       61             122.84         2.3071777      0.74172388     0.01163318     0.38267545    -0.051660818   -0.024696314  
      2900   270.0788      -434.61166      101.2929       61             122.84         2.723248       0.41596729    -0.017855813    0.59797413     0.03892825     0.024441581  
      3000   270.99416     -554.71505      101.303        61             122.84         2.586224       1.3708916      0.027217796    0.19804542     0.032237262   -0.0023384383 
      3100   276.37606     -566.68834      101.3131       61             122.84         2.6339349      1.4462486     -0.0094441561   0.32888516    -0.030465627    0.0082668702 
      3200   282.1266      -576.91085      101.3232       61             122.84         2.7615563      1.3842555     -0.0012270561   0.097223225   -0.014432514   -0.015361582  
      3300   284.94198     -590.40789      101.3333       61             122.84         2.4819809      1.7643805     -0.0043899002  -0.16614924    -0.037282921    0.08344493   
      3400   275.59364     -612.6698       101.3434       61             122.84         3.0323649      1.3856489     -0.015655796   -0.18393391    -0.0010916804   0.015082253  
      3500   280.05351     -783.79759      101.3535       61             122.84         3.1784386      2.4606951     -0.0065703399  -0.50121231    -0.03250433     0.011774387  
      3600   273.80681     -717.17189      101.3636       61             122.84         2.9781615      2.1787578     -0.002631065   -0.26306424     0.030638755   -0.032583269  
      3700   270.22367     -838.65045      101.3737       61             122.84         3.0619065      2.9218364      0.044207856   -0.2280828      0.0071425627  -0.074263844  
      3800   272.61875     -832.09818      101.3838       61             122.84         3.1169285      2.8447058      0.019816725    0.032597689    0.0035907868  -0.047774033  
      3900   269.94015     -683.17472      101.3939       61             122.84         2.6813216      2.2601237     -0.030025825    0.11512978     0.042328626    0.0042774732 
      4000   269.05144     -593.48472      101.404        61             122.84         2.7665392      1.5400023     -0.039488445    0.084576575   -0.051522419   -0.0091466237 
      4100   271.28756     -769.04993      101.4141       61             122.84         3.463422       2.0563175      0.010147935   -0.41215023     0.014420073    0.0095597214 
      4200   273.49733     -920.86955      101.4242       61             122.84         3.9035714      2.7159327      0.0027083774  -0.64039202     0.018941535   -0.024454491  
      4300   268.80723     -891.2604       101.4343       61             122.84         3.7915535      2.5934612      0.024909057    0.083696135    0.025100282    0.072448629  
      4400   273.94682     -785.65017      101.4444       61             122.84         3.2037714      2.4430566      0.0041120768  -0.34512059    -0.011723337   -0.042391987  
      4500   264.12428     -733.03211      101.4545       61             122.84         3.1102862      2.1301463      0.032566948   -0.27734673    -0.024940186   -0.0489744    
      4600   269.98022     -704.36477      101.4646       61             122.84         2.6620326      2.4124083     -0.007152972   -0.15900025     0.0028466077   0.026491174  
      4700   275.11272     -747.78491      101.4747       61             122.84         3.1322153      2.2368233      0.011154827   -0.028493377    0.065087064   -0.049564085  
      4800   278.11734     -728.30263      101.4848       61             122.84         3.1303283      2.1191237     -0.0089089396  -0.10714241    -0.023353863   -0.0011051834 
      4900   282.82597     -818.88836      101.4949       61             122.84         3.3416403      2.5393372      0.011966784   -0.50020728    -0.066235636   -0.060094512  
      5000   274.80532     -855.89264      101.505        61             122.84         3.4526985      2.6999952      0.0071563456  -0.28794036     0.084313356   -0.034468795  
      5100   271.92378     -931.06696      101.5151       61             122.84         3.9740634      2.7026471      0.024835082   -0.7317013     -0.040821282   -0.096584503  
      5200   268.75839     -819.98837      101.5252       61             122.84         3.7313477      2.2070165     -0.035742436   -0.49720754    -0.094552348   -0.084709892  
      5300   268.10085     -880.48044      101.5353       61             122.84         3.9784788      2.3174011      0.042819848   -0.25358067     0.056535873    0.045908913  
      5400   272.42792     -787.22656      101.5454       61             122.84         3.4013131      2.2624687      0.0041342128  -0.46936678     0.0098344611  -0.01711646   
      5500   283.26268     -887.31041      101.5555       61             122.84         3.5229377      2.8656683      0.00053451868 -0.47975785    -0.0045437276  -0.033324568  
      5600   274.63174     -906.21894      101.5656       61             122.84         3.5708913      2.9459923      0.0090580767  -0.19500304     0.038061704   -0.031553374  
      5700   264.55358     -846.25826      101.5757       61             122.84         3.745247       2.3332528      0.016253864   -0.4125625     -0.071999498    0.0092487235 
      5800   269.3184      -853.10735      101.5858       61             122.84         3.4009252      2.7172287      0.026537905   -0.21782937    -0.005438181    0.020602043  
      5900   273.21395     -812.28678      101.5959       61             122.84         3.5997462      2.2289049      0.022603297   -0.031263516   -0.0401754     -0.026959362  
      6000   278.54549     -893.96991      101.606        61             122.84         4.0324763      2.4248711     -0.017053768   -0.46417015     0.056009222   -0.0099003569 
      6100   279.78743     -864.62138      101.6161       61             122.84         3.7552264      2.4663578      0.0078974501  -0.12830063     0.066408978    0.052039776  
      6200   286.08723     -903.61096      101.6262       61             122.84         3.9431838      2.5827732     -0.01491359    -0.37253343     0.06449754    -0.035758374  
      6300   281.8832      -954.34628      101.6363       61             122.84         4.2315817      2.6123096      0.033413102   -0.60521209     0.015529162    0.040348695  
      6400   277.06145     -904.14234      101.6464       61             122.84         3.912748       2.6410783     -0.037659092   -0.51093684    -0.026970127    0.015601145  
      6500   274.76729     -870.29667      101.6565       61             122.84         4.0525373      2.214794       0.0055329704  -0.45950915    -0.019876719    0.050082622  
      6600   267.94925     -876.94027      101.6666       61             122.84         3.7997479      2.4968648      0.024764846   -0.44964957     0.054651526    0.057258097  
      6700   273.81662     -851.1806       101.6767       61             122.84         3.8505679      2.285991      -0.00025897354 -0.015842286   -0.023014034   -0.04506004   
      6800   272.60268     -912.16489      101.6868       61             122.84         3.8159704      2.745591       0.015037387   -0.32949481    -0.020435279    0.02887379   
      6900   281.86696     -1001.4382      101.6969       61             122.84         4.1597597      3.0728549     -0.011649098   -0.33150726     0.0010659464  -0.019131031  
      7000   271.78856     -916.46904      101.707        61             122.84         4.0277377      2.5789144      0.0022916255  -0.61207483     0.037827008   -0.017202613  
      7100   275.57134     -895.0263       101.7171       61             122.84         4.0829533      2.3825371     -0.010535953   -0.42848411    -0.023539728    0.069047675  
      7200   265.79745     -855.75201      101.7272       61             122.84         3.9512298      2.2681227     -0.047032491   -0.34947234     0.029072307   -0.035553978  
      7300   273.76831     -948.21356      101.7373       61             122.84         4.0463868      2.8058991     -0.012385409   -0.45374764    -0.05130157    -0.069471607  
      7400   266.48305     -990.11113      101.7474       61             122.84         4.593935       2.5426849      0.0062160696  -0.30451187     0.04546135     0.010292953  
      7500   279.93319     -955.97776      101.7575       61             122.84         4.2343797      2.648409       0.014487741   -0.48288991     0.031811524    0.043447507  
      7600   277.37668     -970.16231      101.7676       61             122.84         4.4848538      2.5259816     -0.010524259   -0.15021603    -0.016549965    0.062121569  
      7700   270.33383     -983.15822      101.7777       61             122.84         4.0917801      2.9792261      0.023782436   -0.36243911    -0.0017591226  -0.0016748664 
      7800   265.35005     -941.25182      101.7878       61             122.84         4.1150342      2.6538158      0.024202528   -0.29992972     0.018530966   -0.0080364935 
      7900   270.09125     -921.6229       101.7979       61             122.84         4.2040332      2.4389706      0.0090459476  -0.29555872    -0.027773119    0.021393211  
      8000   274.52136     -947.37323      101.808        61             122.84         4.5922131      2.2628683     -0.016493564   -0.4202901      0.07420325     0.050079177  
      8100   278.69397     -951.09328      101.8181       61             122.84         4.3587709      2.5034062      0.0039449378  -0.53912652     0.032787684   -0.0028797867 
      8200   276.31598     -997.00781      101.8282       61             122.84         4.3632304      2.8196697      0.015401524   -0.29576512    -0.030658623    0.028838313  
      8300   277.00221     -1061.4558      101.8383       61             122.84         4.6976058      2.9756401     -0.0088756846  -0.61985077     0.012140508   -0.021048125  
      8400   274.40811     -1031.9509      101.8484       61             122.84         4.7747595      2.6997396     -0.022433496   -0.37551904    -0.012586668    0.010187401  
      8500   267.71914     -995.76544      101.8585       61             122.84         4.6122428      2.5966152     -0.017386941   -0.56085995    -0.028689178   -0.029554146  
      8600   272.95462     -951.29265      101.8686       61             122.84         4.4942855      2.3635001      0.013181861   -0.25694602    -0.015843171    0.041028918  
      8700   278.19275     -1021.1704      101.8787       61             122.84         4.8541498      2.5031805      0.019079543   -0.031226563   -0.034840507   -0.0092262802 
      8800   274.0367      -1061.9827      101.8888       61             122.84         5.018598       2.6649814     -0.011602319   -0.23317295    -0.044793385   -0.003703457  
      8900   270.80852     -978.58614      101.8989       61             122.84         4.4760785      2.6321835     -0.038057661   -0.26077716    -0.0060528926   0.031398005  
      9000   264.88772     -1020.5613      101.909        61             122.84         4.7264005      2.6261427      0.021659048   -0.33536254     0.03925444    -0.02282082   
      9100   269.65601     -1047.5943      101.9191       61             122.84         4.8425641      2.7241444      0.0035743441  -0.40223298    -0.020064881    0.046247441  
      9200   277.06777     -998.70214      101.9292       61             122.84         4.9039241      2.3198152     -0.0060528054  -0.37165241    -0.016632208    0.045180288  
      9300   274.83337     -1094.9377      101.9393       61             122.84         4.9265338      2.9685566      0.018880952   -0.82528245     0.091832892    0.032492875  
      9400   271.37779     -1014.8758      101.9494       61             122.84         4.7225943      2.6245763     -0.011142513   -0.53260927    -0.0099468406   0.0057947889 
      9500   268.05961     -1079.338       101.9595       61             122.84         4.9388078      2.8272117      0.036746555   -0.20990923     0.012876844    0.017434909  
      9600   266.04885     -1019.7056      101.9696       61             122.84         4.5659185      2.8120172     -0.0055350865  -0.32606666    -0.055023625   -0.063382319  
      9700   273.55397     -1099.3426      101.9797       61             122.84         4.6740467      3.2636476      0.011263902   -0.28383683     0.046943756    0.0066753291 
      9800   270.10072     -1144.0568      101.9898       61             122.84         5.1692851      3.0430272      0.060777235   -0.34336576     0.050143305    0.0016767812 
      9900   272.36451     -1114.4332      101.9999       61             122.84         4.9853708      3.0660379      0.0082605289  -0.35194326     0.020563522   -0.053993138  
     10000   269.67729     -1131.4948      102.01         61             122.84         4.8208433      3.3653066     -0.0022797764  -0.26601471    -0.0077624615   0.021868497  
     10100   262.29386     -1091.8879      102.0201       61             122.84         5.054481       2.8106073      0.033094985   -0.25396743    -0.045546923    0.0095760495 
     10200   267.71863     -1143.2712      102.0302       61             122.84         5.5952022      2.6564028      0.019078771   -0.38081351     0.029380493   -0.046967322  
     10300   267.09758     -1127.1784      102.0403       61             122.84         5.3231162      2.8184918      0.013463803   -0.67133761    -0.037513809    0.011020314  
     10400   270.41928     -1059.3741      102.0504       61             122.84         4.868701       2.8198692     -0.023299839   -0.90573413     0.026020408   -0.041320917  
     10500   276.96705     -1052.404       102.0605       61             122.84         5.1768427      2.4540849     -0.015337034   -0.7707982      0.013538116    0.027044462  
     10600   272.6454      -1065.3943      102.0706       61             122.84         5.2476534      2.4729334     -0.010230647   -0.40086279    -0.028360464    0.017608016  
     10700   273.33722     -1099.988       102.0807       61             122.84         5.5505648      2.41743       -0.0064932271  -0.096716716   -0.008759397   -0.0021343907 
     10800   268.87497     -1140.8491      102.0908       61             122.84         5.4590524      2.8208925     -0.021881231   -0.042143565    0.029492758   -0.058039718  
     10900   269.52782     -1156.4882      102.1009       61             122.84         5.3769883      2.9605083      0.034598946   -0.3101794     -0.025871094    0.036344602  
     11000   274.37845     -1057.0552      102.111        61             122.84         5.0793139      2.6265933     -0.052873826   -0.3850327     -0.0097336741   0.059300752  
     11100   271.80338     -1103.6105      102.1211       61             122.84         5.0507412      2.9435162     -0.0033751263  -0.49267995    -0.019483736    0.060981356  
     11200   269.5383      -1075.4876      102.1312       61             122.84         5.1569507      2.6699804     -0.038907628   -0.46686753     0.061529782    0.019537017  
     11300   273.4134      -1109.8263      102.1413       61             122.84         5.4436321      2.599223      -0.0053767226  -0.51674944     0.027837065   -0.0082257273 
     11400   269.49816     -1152.8334      102.1514       61             122.84         5.7502482      2.5857703      0.013747299   -0.21029178     0.025960778    0.0065890659 
     11500   274.49037     -1246.8308      102.1615       61             122.84         5.8761629      3.150425       0.0048768411  -0.36542212    -0.025406267    0.030489137  
     11600   272.37126     -1192.4548      102.1716       61             122.84         5.6391863      2.985472       0.013785952   -0.41424911     0.00013292218 -0.04203505   
     11700   272.1489      -1205.157       102.1817       61             122.84         6.0855181      2.6619696     -0.016162508   -0.26929868     0.053725359   -0.03960418   
     11800   266.55643     -1155.369       102.1918       61             122.84         5.5262744      2.8643909     -0.019225443   -0.49761368    -0.040575739    0.0051501754 
     11900   271.25139     -1074.4553      102.2019       61             122.84         5.2927162      2.5090051     -0.015786831   -0.26210144     0.0100252     -0.034442615  
     12000   272.19395     -1176.8501      102.212        61             122.84         5.4182607      3.0986763      0.011833638   -0.28889892     0.040184806   -0.036810118  
     12100   274.36667     -1271.3437      102.2221       61             122.84         6.1798587      3.0187475      0.015881443   -0.15776273     0.050032574    0.03831254   
     12200   277.61184     -1269.3388      102.2322       61             122.84         6.1115656      3.0871304      0.0021693008  -0.12860171    -0.0012728193   0.056733357  
     12300   278.48034     -1209.5533      102.2423       61             122.84         5.9674093      2.7842401      0.016723933   -0.32165744    -0.056181055   -0.038247897  
     12400   275.28086     -1139.0064      102.2524       61             122.84         5.8516572      2.4272687     -0.021150173   -0.41860325     0.043123506    0.051607797  
     12500   275.37787     -1152.0677      102.2625       61             122.84         5.7958001      2.553512       0.0039828469  -0.23394024    -0.02587099    -0.02059195   
     12600   270.99141     -1190.4226      102.2726       61             122.84         5.5996247      3.0196425      0.012980282   -0.38081029     0.036762377    0.0033528182 
     12700   270.54483     -1222.9872      102.2827       61             122.84         6.1252141      2.7596473     -0.015598629   -0.1446965      0.043649277    0.066457137  
     12800   272.34021     -1186.6379      102.2928       61             122.84         5.9148164      2.682285       0.0094009133  -0.11017746     0.067161024   -0.04639541   
     12900   278.40534     -1121.0332      102.3029       61             122.84         5.4848595      2.6949035     -0.048278624   -0.26283448    -0.022692724   -0.0073233656 
     13000   281.95023     -1264.6581      102.313        61             122.84         6.1153228      3.0445221      0.014337349   -0.26610954     0.020570094   -0.0041450641 
     13100   269.95112     -1218.524       102.3231       61             122.84         5.7972376      3.0245818      0.018565687   -0.49918297    -0.053460561   -0.052514574  
     13200   273.81235     -1110.0997      102.3332       61             122.84         5.5381624      2.5269355     -0.010535272   -0.29788244     0.010609177   -0.038943939  
     13300   273.89182     -1116.876       102.3433       61             122.84         5.4960693      2.6255576     -0.017098095    0.07214283     0.0040382144   0.0042980145 
     13400   271.54631     -1139.9919      102.3534       61             122.84         6.0771883      2.1950924      0.00080332965 -0.085798966   -0.012865467   -0.0032626059 
     13500   273.21077     -1207.6445      102.3635       61             122.84         5.726279       2.9855347      0.053100391   -0.095157532    0.013902362    0.071380534  
     13600   279.91927     -1170.5598      102.3736       61             122.84         5.7407079      2.7434837      0.012404913   -0.26057934     0.0054990651   0.032310457  
     13700   279.75249     -1247.4469      102.3837       61             122.84         6.1490798      2.9088182     -0.0023174535  -0.56679603     0.053200924   -0.029186903  
     13800   275.48372     -1280.6495      102.3938       61             122.84         6.2157424      3.0616519      0.020131204   -0.58609097     0.068122894   -0.0045112345 
     13900   275.92139     -1108.2538      102.4039       61             122.84         5.2998495      2.7825308     -0.035655951   -0.060594632   -0.062715487    0.020238851  
     14000   268.55178     -1080.9352      102.414        61             122.84         5.2378854      2.5899395      0.021321335   -0.4175839     -0.039249036   -0.030654978  
     14100   267.8661      -1115.3158      102.4241       61             122.84         5.8631158      2.2744877     -0.03800652     0.13985476     0.08867683    -0.036558805  
     14200   275.85436     -1078.8682      102.4342       61             122.84         5.3183005      2.5157418      0.0016391673  -0.35032907     0.06136133     0.031210203  
     14300   272.09964     -1083.6743      102.4443       61             122.84         5.555629       2.2906983      0.025036661   -0.52308528    -0.022393741    0.008606468  
     14400   279.79747     -1098.566       102.4544       61             122.84         5.5946543      2.4171693     -0.031505838   -0.33598688     0.033087373   -0.050305109  
     14500   277.34902     -1114.7941      102.4645       61             122.84         5.4270163      2.6612245      0.010760773   -0.33824946    -0.017672367   -0.028676127  
     14600   266.45493     -1156.1579      102.4746       61             122.84         5.5796156      2.7882739      0.032449187   -0.31757545     0.0019382588   0.042266799  
     14700   270.73621     -1179.9701      102.4847       61             122.84         5.9545388      2.639666      -0.020007887   -0.32346086     0.049876307    0.021914043  
     14800   271.78849     -1204.4301      102.4948       61             122.84         5.8905243      2.860211       0.0020618643  -0.37401085     0.025909396    0.024900075  
     14900   270.03211     -1202.3121      102.5049       61             122.84         6.1214352      2.6418212     -0.024990622   -0.25638025    -0.036852437   -0.041298056  
     15000   267.38959     -1175.7917      102.515        61             122.84         5.8822057      2.6400091      0.024145995   -0.40609954     0.044141931   -0.062398715  
     15100   274.56254     -1188.9779      102.5251       61             122.84         5.7394765      2.8991324      0.004448896   -0.19009735    -0.025853863   -0.044684514  
     15200   275.11403     -1203.186       102.5352       61             122.84         5.6890594      3.0662227     -0.0080798801  -0.19056994    -0.04547985     0.028134033  
     15300   276.54663     -1156.418       102.5453       61             122.84         5.8113656      2.613522      -0.016862293   -0.26663095     0.018510955   -0.080323851  
     15400   281.23561     -1136.0486      102.5554       61             122.84         5.7362578      2.5376988     -0.013218668   -0.42287867    -0.046342241    0.025782919  
     15500   270.71238     -1195.9776      102.5655       61             122.84         6.0560555      2.655302      -0.01399118    -0.23880172    -0.02033943    -0.0077575972 
     15600   274.0254      -1226.3668      102.5756       61             122.84         6.1913677      2.7237796      0.0040932164  -0.47744169    -0.0054444766   0.021306554  
     15700   270.61983     -1161.3258      102.5857       61             122.84         5.838142       2.6399801     -0.031087042   -0.32167097    -0.0064498669   0.003146088  
     15800   279.07484     -1262.6735      102.5958       61             122.84         6.3964691      2.8126124     -0.023978196   -0.032799568    0.0078460382  -0.0036710727 
     15900   273.70432     -1302.2416      102.6059       61             122.84         6.4146587      3.0867392     -0.02752995    -0.53521684     0.026293874   -0.055007858  
     16000   276.96508     -1296.0087      102.616        61             122.84         6.559276       2.8632594      0.0069153923  -0.51422644     0.011206804   -0.01183972   
     16100   272.05456     -1247.6859      102.6261       61             122.84         6.3824005      2.6816663      0.014692784   -0.18293266     0.044336075   -0.045112096  
     16200   272.31435     -1227.2325      102.6362       61             122.84         6.5460976      2.3814329      0.003278764   -0.25493414    -0.0081358912   0.0065095325 
     16300   272.7678      -1236.9931      102.6463       61             122.84         6.2741449      2.7099465      0.018633861   -0.2231427      0.0044413163  -0.051519274  
     16400   272.93883     -1236.2773      102.6564       61             122.84         6.0365588      2.9557017      0.0061407825  -0.28140424     0.02273735     0.049931567  
     16500   277.40821     -1223.3957      102.6665       61             122.84         6.3047489      2.5814131      0.019355031   -0.48732849    -0.011050701   -0.020555298  
     16600   274.36224     -1247.4264      102.6766       61             122.84         6.2688518      2.7905587      0.021927378   -0.29065526    -0.042464911    0.02767826   
     16700   273.34822     -1251.4001      102.6867       61             122.84         6.277832       2.8359406     -0.0026103509  -0.11340359     0.021676015   -0.029536691  
     16800   264.44698     -1280.6179      102.6968       61             122.84         6.361593       2.9176028      0.045612389   -0.3608195      0.042417767    0.018019821  
     16900   270.29929     -1245.4861      102.7069       61             122.84         6.5511775      2.5202469     -0.0015363168  -0.28325679     0.021309208    0.019162768  
     17000   275.57593     -1248.0692      102.717        61             122.84         6.4452682      2.6752305     -0.030906683   -0.012586422    0.011044542    0.010432227  
     17100   275.80927     -1310.0706      102.7271       61             122.84         6.4103122      3.125696       0.0060739687  -0.18830861     0.0024078273   0.03291684   
     17200   270.50598     -1305.974       102.7372       61             122.84         6.5902631      2.9062497      0.016666022   -0.18852914     0.0079610381   0.0066268595 
     17300   273.0106      -1266.1566      102.7473       61             122.84         6.5619238      2.6633116     -0.0011936129  -0.33765891     0.010273175    0.055875417  
     17400   272.32821     -1278.5697      102.7574       61             122.84         6.6586762      2.6423547      0.014356451   -0.42008241     0.032236782   -0.051372326  
     17500   271.50869     -1261.7865      102.7675       61             122.84         6.430258       2.763848      -9.3351149e-05 -0.19419531     0.0024853773  -0.011538362  
     17600   269.83501     -1253.913       102.7776       61             122.84         6.4050546      2.7317734      0.00071184186 -0.29720186    -0.043489752   -0.034771521  
     17700   269.66363     -1269.915       102.7877       61             122.84         6.6427937      2.6285575     -0.016291687   -0.30406129    -0.013736888   -0.10551569   
     17800   272.19137     -1336.1168      102.7978       61             122.84         6.6959993      3.0324443      0.010047229   -0.49860028    -0.0047110174   0.070876708  
     17900   259.7419      -1387.3971      102.8079       61             122.84         7.2170984      2.86335        0.032800385   -0.31218481     0.028198596   -0.050723173  
     18000   266.07709     -1390.6157      102.818        61             122.84         7.0096811      3.0909854      0.037039335   -0.2441797      0.028026459   -0.0284464    
     18100   270.03942     -1233.6124      102.8281       61             122.84         6.3446824      2.6462657      0.0030739523  -0.27741789     0.0016428783  -0.071428309  
     18200   271.57895     -1304.4926      102.8382       61             122.84         6.7543495      2.7807472     -0.023366994   -0.360187       0.02326027    -0.0014140811 
     18300   273.45944     -1353.526       102.8483       61             122.84         6.8988425      2.9676187      0.003765737   -0.19150188     0.044011126    0.0019178641 
     18400   279.8999      -1320.7243      102.8584       61             122.84         6.6161264      3.0259577     -0.010108997   -0.33905494    -0.027741199    0.03093532   
     18500   274.06358     -1328.9128      102.8685       61             122.84         7.1061564      2.600391      -0.013902132   -0.4185667     -0.036829281    0.048960531  
     18600   266.95431     -1384.6904      102.8786       61             122.84         7.2989729      2.8032061     -0.0017190816  -0.31522587     0.084982301   -0.032105872  
     18700   273.20316     -1304.4251      102.8887       61             122.84         6.5331845      2.961341       0.02138232    -0.51637529    -0.027184034    0.034261006  
     18800   277.38956     -1225.3116      102.8988       61             122.84         6.2808102      2.6616945     -0.0028595808  -0.41955498    -0.018678256    0.0072556483 
     18900   272.85179     -1209.387       102.9089       61             122.84         6.0720761      2.7549993     -0.0027477501  -0.59068033    -0.016856456   -0.0031977823 
     19000   277.60236     -1147.4589      102.919        61             122.84         5.9655789      2.4151853     -0.0074743689  -0.54158786     0.022903151   -0.030789172  
     19100   276.91149     -1224.9045      102.9291       61             122.84         6.1726797      2.746897       0.019729247   -0.62521774    -0.024811311   -0.014462527  
     19200   269.75821     -1290.9918      102.9392       61             122.84         6.5655034      2.8621709     -0.0051406343  -0.68304886    -0.018170917    0.013819664  
     19300   275.40052     -1296.7628      102.9493       61             122.84         6.5824418      2.8738058      0.0093349932  -0.67706046     0.019109828    0.049688348  
     19400   280.42269     -1257.4291      102.9594       61             122.84         6.4873414      2.6852354      0.0067942562  -0.58613457    -0.068023065   -0.04617572   
     19500   278.33043     -1208.5208      102.9695       61             122.84         6.5158689      2.3088746     -0.0015432079  -0.25165217     0.011736431   -0.049049078  
     19600   270.72523     -1258.6378      102.9796       61             122.84         6.6783587      2.4972322      0.014406223   -0.38739567    -0.011725736   -0.078846991  
     19700   271.88922     -1314.9941      102.9897       61             122.84         6.4052135      3.1891001      0.0081133009  -0.43863052     0.068263941   -0.018206155  
     19800   276.40459     -1264.4145      102.9998       61             122.84         6.6204281      2.5994536      0.014105424   -0.056994123    0.030534276    0.059418771  
     19900   275.09623     -1291.6011      103.0099       61             122.84         6.8404186      2.5806366      0.012400107   -0.70572094    -0.030618086   -0.053560048  
     20000   279.50635     -1367.6349      103.02         61             122.84         6.8400625      3.1480307      0.0016689108  -0.35234454    -0.047444133    0.0087099031 
     20100   269.73221     -1377.9872      103.0301       61             122.84         7.1711378      2.8638771      0.031351243   -0.49322415    -0.01008393    -0.084568559  
     20200   268.95371     -1314.1023      103.0402       61             122.84         6.756309       2.858736      -0.014424645   -0.73596596     0.065707743    0.052467073  
     20300   273.8024      -1182.9985      103.0503       61             122.84         6.3501548      2.3275818     -0.034092636   -0.53449862    -0.066014857    0.0068114304 
     20400   273.54835     -1249.423       103.0604       61             122.84         6.6403432      2.4669136      0.022616204   -0.61356294    -0.070879721    0.030527762  
     20500   278.43137     -1277.2236      103.0705       61             122.84         6.4818705      2.8619374     -0.0098739845  -0.69668445    -0.0074019745  -0.0028691712 
     20600   271.12829     -1309.1367      103.0806       61             122.84         6.5614059      3.0121937     -0.0055073473  -0.60943567    -0.055820549    0.040533179  
     20700   271.70351     -1339.5256      103.0907       61             122.84         7.0499724      2.7255305      0.015651741   -0.34040224     0.010788733    0.0077642636 
     20800   269.99783     -1306.2082      103.1008       61             122.84         7.0035116      2.5597986     -0.0147511     -0.57405076     0.027945755    0.024461764  
     20900   273.51673     -1310.4213      103.1109       61             122.84         6.9479846      2.6119502      0.020361481   -0.38981659    -0.0010217015  -0.049046698  
     21000   266.42926     -1351.4004      103.121        61             122.84         6.973036       2.9004877      0.0073323839  -0.40841398    -0.03431734     0.006012846  
     21100   265.21111     -1276.0137      103.1311       61             122.84         6.8916202      2.4430539     -0.0040995829  -0.17023852     0.019280805    0.078210978  
     21200   272.2381      -1239.8011      103.1412       61             122.84         6.353673       2.6923497      0.020643452   -0.62620383     0.027223499    0.010508326  
     21300   273.71214     -1240.6826      103.1513       61             122.84         6.3146215      2.7654929     -0.0061133728  -0.43361558     0.035260518    0.02585143   
     21400   277.6685      -1300.6095      103.1614       61             122.84         6.6483279      2.8476985      0.017193717   -0.85259942    -0.032265735    0.037092349  
     21500   273.82543     -1282.9373      103.1715       61             122.84         6.5564227      2.8173555      0.011099141   -0.77346647     0.0010134797   0.062807259  
     21600   271.88343     -1299.9344      103.1816       61             122.84         6.9936611      2.5151133      0.0013701137  -0.60291174     0.028537483    0.0019464722 
     21700   260.73476     -1421.6852      103.1917       61             122.84         7.2415881      3.107928       0.052358365   -0.56215245     0.018532515   -0.0083825349 
     21800   267.0182      -1331.7         103.2018       61             122.84         6.9770826      2.7620367      0.0053254456  -0.43007699     0.076899407    0.038906554  
     21900   271.56886     -1334.0438      103.2119       61             122.84         6.9985717      2.7296114      0.034367344   -0.47136329    -0.028067474    0.014280856  
     22000   277.29809     -1330.4475      103.222        61             122.84         6.7856107      2.972724      -0.021149404   -0.48026883    -0.034165397   -0.046164534  
     22100   269.6234      -1314.693       103.2321       61             122.84         6.9463798      2.6810044     -0.0045604048  -0.51276484     0.059902998    0.01480719   
     22200   270.04428     -1256.4         103.2422       61             122.84         6.5027055      2.694365      -1.9663279e-05 -0.66679185    -0.054257708   -0.00066177716
     22300   268.4152      -1341.3856      103.2523       61             122.84         6.8874092      2.9094005      0.023309898   -0.55253818    -0.046910959    0.0008328519 
     22400   271.14578     -1347.1941      103.2624       61             122.84         6.9801078      2.8826839      0.00081611062 -0.6070339     -0.034867948    0.046205475  
     22500   274.07321     -1309.2631      103.2725       61             122.84         6.6944323      2.8916137      0.00078383711 -0.34894708    -0.040883044   -0.024019531  
     22600   271.38309     -1279.4318      103.2826       61             122.84         7.0372271      2.3405284     -0.0084435323  -0.4514085      0.049538962   -0.0092347385 
     22700   275.29471     -1286.4789      103.2927       61             122.84         7.1261714      2.2965242     -0.00085587021 -0.87630316     0.071122357   -0.022122258  
     22800   270.95287     -1319.6931      103.3028       61             122.84         7.1819094      2.4855222     -0.0013944017  -0.82443046     0.046841506    0.0091078112 
     22900   271.87539     -1345.3275      103.3129       61             122.84         6.8557545      3.0134162     -0.014412532   -0.77556216    -0.048716686   -0.019476503  
     23000   275.16689     -1373.3371      103.323        61             122.84         7.2450332      2.8227677     -0.0068841686  -0.43367424    -0.05041147     0.021612906  
     23100   274.14891     -1396.9178      103.3331       61             122.84         7.4080763      2.8179936      0.0085970878  -0.45610626     0.051500919   -0.01735639   
     23200   277.18461     -1378.4536      103.3432       61             122.84         7.5149936      2.5924883     -0.0071077841  -0.38902732    -0.014810973   -0.017395351  
     23300   273.00596     -1351.3823      103.3533       61             122.84         7.0273195      2.9079641     -0.032301406   -0.32668831     0.049001951    0.021377408  
     23400   268.91938     -1327.3381      103.3634       61             122.84         6.946776       2.7615661      0.019393164   -0.29780666    -0.029872003    0.0046163474 
     23500   273.98337     -1266.1161      103.3735       61             122.84         7.0938213      2.1603103      0.025830017   -0.52750913    -0.058722503   -0.00031969267
     23600   271.79618     -1383.9338      103.3836       61             122.84         7.6319254      2.5482246     -0.035656254   -0.49669289     0.022755441   -0.0096210148 
     23700   273.01349     -1394.6896      103.3937       61             122.84         7.3279081      2.8837178      0.012708815   -0.77961154    -0.0029098834   0.058874201  
     23800   280.81187     -1440.5387      103.4038       61             122.84         7.4019145      3.1792417     -0.019674363   -0.59244222    -0.0075804872   0.03803618   
     23900   279.96563     -1438.8382      103.4139       61             122.84         7.4509193      3.0915801      0.0075449951  -0.77691768     0.012570799   -0.048134064  
     24000   271.07109     -1429.9493      103.424        61             122.84         7.6427786      2.8353158      0.0077976119  -0.6014211      0.002160621    0.046582319  
     24100   272.20427     -1464.9268      103.4341       61             122.84         7.6429168      3.0853613      0.01515476    -0.49008049    -0.024001525    0.052264458  
     24200   274.91293     -1395.8846      103.4442       61             122.84         7.5302714      2.7210865     -0.013264537   -0.71657545    -0.0024677903  -0.020390199  
     24300   276.93375     -1469.2786      103.4543       61             122.84         7.6416982      3.1349318      0.0008226689  -0.20772343     0.01011365     0.013124354  
     24400   277.71166     -1367.4546      103.4644       61             122.84         7.3124513      2.7505867     -0.031505408   -0.33738735    -0.024327864   -0.042549372  
     24500   273.93392     -1486.627       103.4745       61             122.84         7.8009681      3.0806574      0.025210279   -0.43408292     0.016258486   -0.022428885  
     24600   274.3067      -1449.6155      103.4846       61             122.84         7.8416824      2.8019404     -0.0072891792  -0.26107263    -0.010832842   -0.028463918  
     24700   270.24873     -1397.9317      103.4947       61             122.84         7.7316382      2.533322      -0.0068472217  -0.43454427    -0.021995235   -0.055277328  
     24800   272.10824     -1388.4919      103.5048       61             122.84         7.4458872      2.7548434     -0.010893004   -0.64493076     0.003770572    0.0057437478 
     24900   269.86779     -1425.3175      103.5149       61             122.84         7.5169594      2.9102411      0.033912291   -0.50433523     0.018723739    0.012006104  
     25000   278.58265     -1440.7168      103.525        61             122.84         7.5944375      2.9612614      0.01946919    -0.6088613      0.0010516672   0.041243249  
     25100   271.35782     -1495.3353      103.5351       61             122.84         7.9614372      3.0286798     -0.012966993   -0.74674716    -0.019068824    0.017455739  
     25200   273.24136     -1502.6509      103.5452       61             122.84         7.9781049      3.0465016      0.0073230956  -0.57516881    -0.051865599   -0.063876008  
     25300   268.95506     -1494.2508      103.5553       61             122.84         8.3304788      2.6104926      0.030357711   -0.38885776     0.011319307    0.02723748   
     25400   273.7788      -1503.1398      103.5654       61             122.84         8.3934701      2.6358808      0.0083208648  -0.44797638    -0.069621863    0.0064147145 
     25500   285.29026     -1499.1976      103.5755       61             122.84         8.0851199      2.9693291     -0.044651418   -0.26309734    -0.002754171    0.011258325  
     25600   274.10767     -1521.4816      103.5856       61             122.84         7.7989314      3.3668804      0.0087246414  -0.049534431    0.014340767   -0.014109417  
     25700   270.26258     -1453.1917      103.5957       61             122.84         7.7118882      2.9215706      0.040561845   -0.60408438    -0.037262717    0.052467271  
     25800   274.64375     -1375.55        103.6058       61             122.84         7.7163481      2.413926      -0.025564284   -0.66245863     0.028755012   -0.019477273  
     25900   270.03517     -1452.2283      103.6159       61             122.84         7.5897504      3.0688372      0.010436773   -0.88025586     0.057700953    0.020112593  
     26000   276.9109      -1455.4304      103.626        61             122.84         7.9161391      2.786804      -0.0093513933  -0.67560867    -0.047909022    0.016489366  
     26100   280.17736     -1485.3205      103.6361       61             122.84         8.2030119      2.7147415     -0.0034843033  -0.27435954    -0.0042707641   0.016439133  
     26200   273.09435     -1542.7222      103.6462       61             122.84         8.569494       2.7728486     -0.0051762552  -0.26052584     0.043924104   -0.055698785  
     26300   277.24772     -1520.9581      103.6563       61             122.84         8.3948451      2.7832232      0.00024757049 -0.33434428    -0.037230132    0.019787136  
     26400   270.65228     -1499.0757      103.6664       61             122.84         7.986397       3.0151914      0.016975664   -0.69794291     0.0033374021   0.060576365  
     26500   272.66752     -1453.7235      103.6765       61             122.84         7.8707556      2.8132831      0.0022168031  -0.46596515    -0.011952806   -0.06561349   
     26600   276.83225     -1479.6073      103.6866       61             122.84         8.0274496      2.8800564     -0.029920121   -0.68431227     0.048970987    0.028174671  
     26700   269.82557     -1504.5009      103.6967       61             122.84         8.1578713      2.9044257     -0.00062458923 -0.58923643    -0.043693876   -0.044567065  
     26800   270.97803     -1634.5719      103.7068       61             122.84         8.5663098      3.4139408      0.038924932   -0.50734253    -0.054989839   -0.040563644  
     26900   276.63194     -1552.772       103.7169       61             122.84         8.547237       2.9077147     -0.036147393   -0.60766536    -0.032872283    0.014752914  
     27000   275.91821     -1445.674       103.727        61             122.84         8.2566031      2.3816576     -0.0060005689  -0.37126397    -0.038054039   -0.0040099531 
     27100   275.11324     -1470.2681      103.7371       61             122.84         8.0258038      2.7815988      0.0067883534  -0.4274341      0.021503882    0.017546348  
     27200   279.08403     -1566.8244      103.7472       61             122.84         8.2997168      3.2279518     -0.0021596477  -0.61007352    -0.05678421     0.020297516  
     27300   270.29225     -1587.3202      103.7573       61             122.84         8.4323893      3.2302721      0.014750698   -0.53251382     0.035720184   -0.047720982  
     27400   272.23966     -1598.73        103.7674       61             122.84         8.6421412      3.0895389      0.030815308   -0.82241255     0.010544019   -0.02986869   
     27500   273.01165     -1562.825       103.7775       61             122.84         8.5176484      2.9874597     -0.0056610101  -0.48926812    -0.026107533   -0.054930532  
     27600   272.54773     -1556.9601      103.7876       61             122.84         8.7037622      2.7714855     -0.017840027   -0.44359812    -0.051191636    0.022833308  
     27700   273.34657     -1595.0091      103.7977       61             122.84         8.633529       3.1052453     -0.0002278606  -0.53803895     0.0067583996   0.043542829  
     27800   268.4743      -1550.6205      103.8078       61             122.84         8.4823475      2.9312002     -0.00057117919 -0.7593173     -0.023366122    0.0098216404 
     27900   278.1006      -1579.2294      103.8179       61             122.84         8.505966       3.1313045     -0.01259401    -0.65431687    -0.070060026   -0.0088151    
     28000   278.3978      -1612.4439      103.828        61             122.84         8.7097323      3.1601756      0.00041481997 -0.39877258     0.0021600584   0.0013677762 
     28100   267.23278     -1624.5731      103.8381       61             122.84         8.8032566      3.1254309      0.032089833   -0.29142861     0.0026461299  -0.05642264   
     28200   259.73109     -1609.6674      103.8482       61             122.84         8.7179367      3.0821254      0.052126189   -0.3679934      0.042270211    0.023492323  
     28300   277.92064     -1612.8983      103.8583       61             122.84         8.7511741      3.1501296     -0.02417072    -0.40917349    -0.059654486   -0.0021478449 
     28400   275.84091     -1685.598       103.8684       61             122.84         9.0766987      3.3306296      0.0063609207  -0.71908172     0.032501546   -0.055096021  
     28500   275.00834     -1604.9981      103.8785       61             122.84         8.8496152      2.9795636     -0.0079230272  -0.62254149     0.049742983    0.0096560732 
     28600   270.49999     -1608.2033      103.8886       61             122.84         8.9129745      2.9218085      0.011231635   -0.76173433    -0.079618265   -0.025450584  
     28700   274.25176     -1587.9707      103.8987       61             122.84         8.8842714      2.8383517     -0.024505083   -0.53768085     0.033038233   -0.011396677  
     28800   271.39366     -1600.2124      103.9088       61             122.84         8.880334       2.9064959      0.002615122   -0.29660979    -0.045835205    0.056410662  
     28900   276.34763     -1631.3463      103.9189       61             122.84         8.8929106      3.1605379     -0.033458063   -0.48748521    -0.016387586    0.0019618442 
     29000   282.9389      -1647.4458      103.929        61             122.84         8.9972319      3.1604179     -0.017855978   -0.66515805     0.024568202    0.023536404  
     29100   272.58702     -1585.905       103.9391       61             122.84         8.6921116      2.9934381      0.0018938645  -0.51293116    -0.022028287   -0.028408318  
     29200   269.32195     -1605.4354      103.9492       61             122.84         9.099119       2.7579277     -0.024522217   -0.51737166     0.02736542    -0.06505329   
     29300   266.02506     -1576.8891      103.9593       61             122.84         8.7322088      2.8566552      0.034395211   -0.23965905    -0.017926814   -0.022938041  
     29400   270.26906     -1641.3608      103.9694       61             122.84         9.1030592      2.9718756      0.024720847   -0.50341558     0.012451444    0.06935368   
     29500   280.01636     -1649.6106      103.9795       61             122.84         9.3330583      2.8141187      0.014474847   -0.54381336     0.09849851    -0.01359502   
     29600   285.21267     -1678.3997      103.9896       61             122.84         9.2937184      3.062418       0.018963384   -0.49494937    -0.0010078343   0.026070738  
     29700   279.12005     -1684.0834      103.9997       61             122.84         9.4207262      2.9759568      0.021529537   -0.83029168     0.059152013   -0.041678918  
     29800   273.17581     -1704.589       104.0098       61             122.84         9.5279246      2.9956629      0.047051724   -0.77372488     0.021090937   -0.021907489  
     29900   276.54237     -1714.157       104.0199       61             122.84         9.3985871      3.2280335      0.01580617    -0.49998208    -0.019848535    0.0084150601 
     30000   268.86544     -1624.312       104.03         61             122.84         9.0810492      2.9044193     -0.0045125294  -0.51632567    -0.0071448647   0.0067104716 
     30100   268.96746     -1613.3987      104.0401       61             122.84         9.0388971      2.8778298     -0.015112445   -0.70781077     0.018912762   -0.011560864  
     30200   276.08745     -1644.3159      104.0502       61             122.84         9.1759845      2.9754802     -0.02060493    -0.60563181    -0.046612698   -0.052623502  
     30300   278.64752     -1690.5246      104.0603       61             122.84         9.6065945      2.840209       0.026169685   -0.54984363    -0.0031709985  -0.014149999  
     30400   286.15926     -1610.5197      104.0704       61             122.84         9.2524715      2.6909422     -0.059576911   -0.34995662    -0.042546101    0.014706748  
     30500   276.11449     -1723.7741      104.0805       61             122.84         9.6189632      3.0878288      0.013970063   -0.23339622     0.051156431   -0.023370057  
     30600   276.89958     -1670.3772      104.0906       61             122.84         9.3822917      2.9622104     -0.016590995   -0.39443271     0.0028900754   0.049880831  
     30700   271.56089     -1712.1892      104.1007       61             122.84         9.5357405      3.0914095      0.010572452   -0.71623671    -0.085834592    0.023798694  
     30800   270.67222     -1683.4999      104.1108       61             122.84         9.5187157      2.8833112      0.025144308   -0.74972083     0.052880293   -0.042641341  
     30900   277.40127     -1744.1578      104.1209       61             122.84         9.5910386      3.2725584      0.012584903   -0.4629952      0.054200144    0.07307983   
     31000   281.00347     -1741.5163      104.131        61             122.84         9.497771       3.3636255     -0.0034681193  -0.53962578    -0.015101841   -0.017936712  
     31100   275.61071     -1697.3036      104.1411       61             122.84         9.5270889      3.0207909     -0.015166645   -0.1834681     -0.053940976    0.069847243  
     31200   270.78168     -1706.9302      104.1512       61             122.84         9.6318382      3.0009533     -0.027774252   -0.63655222     0.012462765   -0.012169892  
     31300   268.85315     -1711.9597      104.1613       61             122.84         9.7949768      2.8529253     -0.0045173715  -0.55675998    -0.0094043999  -0.049762368  
slurmstepd: error: *** JOB 28581774 ON dcc-barthellab-01 CANCELLED AT 2025-04-29T16:19:46 ***
